10
[-1, 349, 148, 529, 196, 158, 343, 504, 326, 444, 
349, -1, 431, 428, 384, 473, 211, 243, 403, 464, 
148, 431, -1, 498, 134, 55, 458, 521, 283, 402, 
529, 428, 498, -1, 490, 539, 565, 290, 501, 394, 
196, 384, 134, 490, -1, 179, 414, 463, 254, 432, 
158, 473, 55, 539, 179, -1, 483, 572, 326, 436, 
343, 211, 458, 565, 414, 483, -1, 432, 527, 629, 
504, 243, 521, 290, 463, 572, 432, -1, 424, 413, 
326, 403, 283, 501, 254, 326, 527, 424, -1, 265, 
444, 464, 402, 394, 432, 436, 629, 413, 265, -1]